3
8
20
1 1.3 1.55 1.75 2.1
15 35 32 16 45 16 24 42 12 27 47 22 44 45 30 7 5 7 20 48 44 27 12 23 21 7 39 43 20 45 39 19 5 25 27 45 42 19 15 22 20 31 40 49 44 12 18 31 46 6 32 25 49 27 18 10 23 44 48 36 27 24 27 33 38 43 41 34 15 43 17 26 39 7 30 7 44 17 10 38 37 37 15 46 23 22 39 42 33 40 17 14 26 5 13 32 29 39 7 21 13 43 36 32 38 9 22 41 28 45 41 28 20 45 23 30 41 19 37 19 47 33 47 13 42 32 43 35 39 37 23 31 48 37 47 40 15 41 38 5 19 16 6 47 32 30 27 14 8 18 46 25 40 18 17 16 11 40 44 41 